proyfinal/src/viki/013/andrea/andrea-localstore/experimentInOfficeAgust.take6/worker_5/03f395d1-bf7c-49d6-b273-07c12570df38.als.cnf.out
Reading from standard input... Use '--help' for help.
============================[ Problem Statistics ]=============================
|                                                                             |
|  Number of variables:         87638                                         |
|  Number of clauses:          161767                                         |
|  Parse time:                   0.03 s                                       |
|                                                                             |
============================[ Search Statistics ]==============================
| Conflicts |          ORIGINAL         |          LEARNT          | Progress |
|           |    Vars  Clauses Literals |    Limit  Clauses Lit/Cl |          |
===============================================================================
|       100 |   63698   110010   274830 |    40337      100      9 | 27.317 % |
|       250 |   63698   110010   274830 |    44370      250     24 | 27.317 % |
|       475 |   63698   110010   274830 |    48807      475     45 | 27.317 % |
|       812 |   63698   110010   274830 |    53688      812     51 | 27.317 % |
|      1318 |   53480    80140   201387 |    59057     1300     66 | 38.976 % |
|      2077 |   53319    79568   199977 |    64963     2002     61 | 39.160 % |
|      3216 |   53258    79293   199347 |    71459     3133     57 | 39.230 % |
|      4924 |   53234    79188   199094 |    78605     4820     56 | 39.257 % |
|      7486 |   53123    78785   198112 |    86465     7376     65 | 39.384 % |
|     11330 |   52941    78006   196247 |    95112     9522     64 | 39.591 % |
|     17096 |   52783    77378   194737 |   104623    15215     70 | 39.772 % |
===============================================================================
restarts              : 63
conflicts             : 18694          (7238 /sec)
decisions             : 64738          (0.00 % random) (25065 /sec)
propagations          : 28759696       (11135015 /sec)
conflict literals     : 1250720        (45.65 % deleted)
Memory used           : 31.63 MB
CPU time              : 2.58282 s

INDETERMINATE
